
n_res = 4;
rcap = [33, 33, 302, 316];
rtype = [1, 1, 2, 2];
n_tasks = 50;
modes =  [{1, 2, 3}, {4, 5, 6}, {7, 8, 9}, {10, 11, 12}, {13, 14, 15}, {16, 17, 18}, {19, 20, 21}, {22, 23, 24}, {25, 26, 27}, {28, 29, 30}, {31, 32, 33}, {34, 35, 36}, {37, 38, 39}, {40, 41, 42}, {43, 44, 45}, {46, 47, 48}, {49, 50, 51}, {52, 53, 54}, {55, 56, 57}, {58, 59, 60}, {61, 62, 63}, {64, 65, 66}, {67, 68, 69}, {70, 71, 72}, {73, 74, 75}, {76, 77, 78}, {79, 80, 81}, {82, 83, 84}, {85, 86, 87}, {88, 89, 90}, {91, 92, 93}, {94, 95, 96}, {97, 98, 99}, {100, 101, 102}, {103, 104, 105}, {106, 107, 108}, {109, 110, 111}, {112, 113, 114}, {115, 116, 117}, {118, 119, 120}, {121, 122, 123}, {124, 125, 126}, {127, 128, 129}, {130, 131, 132}, {133, 134, 135}, {136, 137, 138}, {139, 140, 141}, {142, 143, 144}, {145, 146, 147}, {148, 149, 150}];
succ =  [{11, 10, 7, 5}, {14, 10, 9, 7}, {9, 5}, {14, 7}, {21, 20, 18, 15, 14, 13}, {24, 21, 20, 18, 15, 13}, {22, 21, 18, 17, 12}, {26, 22, 21, 18, 17, 16}, {24, 22, 18, 15}, {15, 13}, {26, 24, 21, 18, 16}, {24, 20, 15}, {26, 22, 17, 16}, {26, 24, 16}, {26, 16}, {25, 23, 19}, {36, 29, 28, 25, 23}, {36, 30, 29, 28, 27}, {36, 29, 28, 27}, {36, 27, 26}, {43, 40, 36, 33, 32, 30}, {43, 40, 36, 35, 33, 32, 31}, {35, 31, 27}, {35, 31, 27}, {43, 40, 32, 30}, {43, 32, 30}, {43, 40, 39, 33, 32}, {43, 40, 35, 34, 31}, {43, 42, 40, 39, 35, 34}, {35, 34, 31}, {50, 49, 42, 39, 37}, {44, 42, 34}, {49, 44, 42, 38}, {50, 49, 37}, {50, 49, 38}, {44, 37}, {38}, {47, 46, 41}, {47, 46, 44}, {49, 46, 45}, {48, 45}, {46, 45}, {50, 46}, {45}, {}, {}, {}, {}, {}, {}];
n_opt = 150;
dur = [2, 3, 10, 2, 5, 6, 4, 5, 9, 3, 6, 7, 1, 8, 9, 4, 6, 9, 6, 7, 8, 7, 8, 9, 4, 6, 7, 2, 3, 9, 5, 6, 8, 1, 4, 10, 1, 5, 6, 6, 7, 8, 3, 7, 8, 2, 3, 7, 2, 4, 5, 8, 9, 10, 1, 3, 6, 1, 6, 9, 6, 7, 10, 1, 3, 8, 2, 9, 10, 2, 3, 4, 2, 5, 6, 1, 5, 7, 5, 7, 9, 7, 9, 10, 7, 8, 9, 1, 3, 8, 1, 8, 10, 1, 2, 3, 2, 8, 10, 3, 4, 8, 2, 5, 7, 1, 3, 4, 2, 9, 10, 2, 5, 8, 2, 4, 7, 1, 2, 10, 3, 4, 8, 3, 4, 7, 2, 7, 9, 3, 4, 7, 2, 7, 8, 2, 5, 8, 6, 7, 10, 4, 6, 8, 1, 7, 8, 3, 6, 7];
rreq = [|9, 7, 4, 2, 1, 1, 3, 3, 2, 5, 5, 5, 6, 6, 4, 8, 4, 2, 9, 6, 1, 7, 6, 5, 9, 7, 7, 4, 4, 4, 4, 4, 4, 10, 10, 10, 1, 1, 1, 9, 6, 6, 8, 4, 3, 8, 6, 5, 6, 6, 3, 5, 3, 3, 6, 6, 6, 7, 6, 4, 3, 3, 3, 8, 7, 6, 8, 8, 7, 7, 7, 7, 8, 8, 7, 7, 6, 6, 10, 9, 9, 4, 3, 3, 9, 9, 9, 6, 6, 5, 8, 5, 4, 8, 6, 6, 8, 8, 8, 4, 4, 4, 7, 5, 4, 7, 4, 1, 9, 7, 5, 9, 9, 9, 10, 8, 7, 8, 7, 5, 8, 6, 6, 7, 5, 1, 9, 6, 1, 6, 4, 3, 8, 5, 5, 8, 8, 8, 7, 7, 4, 5, 5, 4, 7, 7, 7, 8, 8, 5
 |6, 5, 5, 5, 4, 4, 8, 5, 3, 6, 5, 3, 10, 9, 7, 4, 4, 3, 2, 1, 1, 7, 3, 2, 4, 4, 4, 6, 3, 2, 10, 9, 8, 4, 2, 2, 6, 5, 5, 7, 7, 7, 4, 4, 3, 5, 5, 5, 2, 2, 2, 8, 6, 6, 8, 6, 5, 2, 1, 1, 5, 4, 1, 9, 9, 9, 5, 5, 4, 3, 3, 3, 3, 2, 2, 6, 4, 4, 3, 1, 1, 10, 10, 10, 7, 4, 3, 7, 7, 7, 9, 9, 8, 9, 7, 4, 3, 3, 3, 7, 5, 4, 7, 5, 5, 7, 5, 5, 7, 6, 3, 1, 1, 1, 6, 6, 6, 5, 4, 3, 9, 8, 7, 9, 6, 6, 7, 6, 6, 7, 6, 4, 7, 4, 3, 8, 4, 3, 10, 5, 4, 8, 7, 6, 9, 7, 7, 4, 2, 2
 |3, 3, 3, 5, 4, 4, 8, 8, 8, 4, 2, 1, 9, 5, 1, 6, 5, 4, 6, 5, 5, 5, 4, 3, 10, 10, 10, 9, 7, 7, 6, 3, 2, 9, 7, 7, 5, 4, 2, 8, 7, 5, 6, 6, 6, 8, 5, 3, 9, 6, 6, 8, 6, 5, 10, 10, 10, 9, 4, 2, 6, 5, 5, 4, 4, 4, 5, 4, 2, 9, 7, 6, 5, 4, 3, 8, 5, 4, 9, 6, 5, 1, 1, 1, 9, 5, 1, 1, 1, 1, 8, 5, 4, 10, 8, 6, 6, 5, 3, 3, 2, 1, 7, 6, 4, 7, 5, 5, 10, 9, 8, 9, 7, 4, 8, 5, 3, 5, 4, 3, 7, 6, 5, 3, 3, 2, 5, 3, 2, 5, 3, 3, 9, 9, 9, 7, 4, 2, 7, 7, 5, 6, 6, 3, 4, 4, 3, 8, 7, 7
 |8, 8, 8, 5, 3, 2, 9, 9, 9, 8, 6, 6, 9, 7, 5, 7, 5, 4, 9, 6, 2, 10, 7, 6, 3, 2, 1, 1, 1, 1, 4, 4, 4, 7, 4, 3, 9, 9, 8, 8, 3, 2, 8, 8, 8, 6, 4, 4, 7, 4, 1, 10, 7, 5, 8, 4, 3, 10, 8, 8, 9, 8, 7, 8, 7, 5, 5, 5, 4, 6, 3, 2, 4, 4, 3, 8, 5, 4, 7, 5, 5, 7, 4, 3, 2, 2, 2, 6, 5, 5, 8, 7, 7, 9, 9, 9, 8, 7, 5, 9, 5, 3, 9, 8, 8, 9, 7, 7, 4, 4, 2, 8, 6, 6, 6, 4, 4, 9, 5, 4, 4, 3, 3, 8, 5, 4, 5, 5, 5, 5, 4, 3, 10, 6, 5, 5, 5, 5, 2, 2, 2, 9, 8, 6, 5, 4, 2, 6, 6, 6|];